808235
169,88,107,226,86,151,127,31,222,36,201,4,102,210,43,166,91,211,57,56,137,9,74,55,93,77,165,83,121,23,59,180,78,130,186,122,129,146,171,179,134,204,216,82,27,191,117,84,68,124,207,71,111,158,40,96,49,175,120,150,189,224,67,21,157,197,29,176,161,125,145,205,37,65,47,116,30,61,70,-1,5,34,227,131,110,153,208,181,18,115,69,138,72,155,81,133,160,41,112,193,172,162,152,63,198,196,8,199,108,12,163,192,95,118,6,13,135,136,1,183,58,187,14,206,212,44,123,225,17,132,109,46,223,11,218,28,42,3,154,143,142,24,20,89,94,164,7,66,99,182,114,105,87,194,177,190,35,32,203,73,213,76,26,48,106,33,85,92,149,53,60,100,128,79,38,167,25,159,209,62,45,15,174,221,141,195,219,50,170,202,0,80,156,178,119,75,220,39,126,104,139,217,64,22,188,97,200,103,214,98,51,90,173,52,16,54,113,147,228,144,10,185,101,215,19,2,168,140,148,184,169
